p cnf 737 2598
1 2 3 4 0
-1 -2 0
-1 -3 0
-1 -4 0
-2 -3 0
-2 -4 0
-3 -4 0
5 -6 -7 0
6 -5 -7 0
-5 -6 7 0
6 5 7 0
-1 -7 0
6 -8 -9 0
8 -6 -9 0
9 -6 -8 0
9 6 8 0
-2 9 0
-5 10 0
-8 10 0
5 8 -10 0
6 -10 -11 0
-6 10 -11 0
-6 -10 11 0
6 10 11 0
-3 11 0
5 12 0
8 12 0
-5 -8 -12 0
-6 12 -13 0
6 -12 -13 0
13 -12 -6 0
6 12 13 0
-4 -13 0
8 -14 -15 0
14 -8 -15 0
-8 -14 15 0
8 14 15 0
-1 -15 0
-5 14 -16 0
5 -14 -16 0
16 -14 -5 0
16 14 5 0
-2 16 0
14 -10 -17 0
10 -14 -17 0
-10 -14 17 0
14 10 17 0
-3 17 0
12 -14 -18 0
14 -12 -18 0
18 -12 -14 0
14 12 18 0
-4 -18 0
19 -20 -21 0
20 -19 -21 0
-19 -20 21 0
20 19 21 0
-1 -21 0
20 -22 -23 0
22 -20 -23 0
23 -20 -22 0
23 20 22 0
-2 23 0
-19 24 0
-22 24 0
-25 24 0
-26 24 0
-27 24 0
-28 24 0
-29 24 0
30 0
20 -24 -31 0
-20 24 -31 0
-20 -24 31 0
20 24 31 0
-3 31 0
19 32 0
22 32 0
25 32 0
26 32 0
27 32 0
28 32 0
29 32 0
-33 0
-20 32 -34 0
20 -32 -34 0
34 -32 -20 0
20 32 34 0
-4 -34 0
22 -35 -36 0
35 -22 -36 0
-22 -35 36 0
22 35 36 0
-1 -36 0
35 -25 -37 0
25 -35 -37 0
37 -35 -25 0
37 35 25 0
-2 37 0
-22 38 0
-25 38 0
-26 38 0
-27 38 0
-28 38 0
-29 38 0
22 25 26 27 28 29 -38 0
35 -38 -39 0
-35 38 -39 0
-35 -38 39 0
35 38 39 0
-3 39 0
22 40 0
25 40 0
26 40 0
27 40 0
28 40 0
29 40 0
-41 0
-35 40 -42 0
35 -40 -42 0
42 -40 -35 0
35 40 42 0
-4 -42 0
25 -43 -44 0
43 -25 -44 0
-25 -43 44 0
25 43 44 0
-1 -44 0
43 -26 -45 0
26 -43 -45 0
45 -43 -26 0
45 43 26 0
-2 45 0
-25 46 0
-26 46 0
-27 46 0
-28 46 0
-29 46 0
25 26 27 28 29 -46 0
43 -46 -47 0
-43 46 -47 0
-43 -46 47 0
43 46 47 0
-3 47 0
25 48 0
26 48 0
27 48 0
28 48 0
29 48 0
-49 0
-43 48 -50 0
43 -48 -50 0
50 -48 -43 0
43 48 50 0
-4 -50 0
26 -51 -52 0
51 -26 -52 0
-26 -51 52 0
26 51 52 0
-1 -52 0
51 -27 -53 0
27 -51 -53 0
53 -51 -27 0
53 51 27 0
-2 53 0
-26 54 0
-27 54 0
-28 54 0
-29 54 0
26 27 28 29 -54 0
51 -54 -55 0
-51 54 -55 0
-51 -54 55 0
51 54 55 0
-3 55 0
26 56 0
27 56 0
28 56 0
29 56 0
-57 0
-51 56 -58 0
51 -56 -58 0
58 -56 -51 0
51 56 58 0
-4 -58 0
27 -59 -60 0
59 -27 -60 0
-27 -59 60 0
27 59 60 0
-1 -60 0
59 -28 -61 0
28 -59 -61 0
61 -59 -28 0
61 59 28 0
-2 61 0
59 -54 -62 0
54 -59 -62 0
-54 -59 62 0
59 54 62 0
-3 62 0
56 -59 -63 0
59 -56 -63 0
63 -56 -59 0
59 56 63 0
-4 -63 0
28 -64 -65 0
64 -28 -65 0
-28 -64 65 0
28 64 65 0
-1 -65 0
64 -29 -66 0
29 -64 -66 0
66 -64 -29 0
66 64 29 0
-2 66 0
64 -54 -67 0
54 -64 -67 0
-54 -64 67 0
64 54 67 0
-3 67 0
56 -64 -68 0
64 -56 -68 0
68 -56 -64 0
64 56 68 0
-4 -68 0
29 -69 -70 0
69 -29 -70 0
-29 -69 70 0
29 69 70 0
-1 -70 0
-26 69 -71 0
26 -69 -71 0
71 -69 -26 0
71 69 26 0
-2 71 0
69 -54 -72 0
54 -69 -72 0
-54 -69 72 0
69 54 72 0
-3 72 0
56 -69 -73 0
69 -56 -73 0
73 -56 -69 0
69 56 73 0
-4 -73 0
74 -75 -76 0
75 -74 -76 0
-74 -75 76 0
75 74 76 0
-1 -76 0
75 -77 -78 0
77 -75 -78 0
78 -75 -77 0
78 75 77 0
-2 78 0
-74 79 0
-77 79 0
-80 79 0
-81 79 0
-82 79 0
-83 79 0
-84 79 0
85 0
75 -79 -86 0
-75 79 -86 0
-75 -79 86 0
75 79 86 0
-3 86 0
74 87 0
77 87 0
80 87 0
81 87 0
82 87 0
83 87 0
84 87 0
-88 0
-75 87 -89 0
75 -87 -89 0
89 -87 -75 0
75 87 89 0
-4 -89 0
77 -90 -91 0
90 -77 -91 0
-77 -90 91 0
77 90 91 0
-1 -91 0
90 -80 -92 0
80 -90 -92 0
92 -90 -80 0
92 90 80 0
-2 92 0
-77 93 0
-80 93 0
-81 93 0
-82 93 0
-83 93 0
-84 93 0
94 0
90 -93 -95 0
-90 93 -95 0
-90 -93 95 0
90 93 95 0
-3 95 0
77 96 0
80 96 0
81 96 0
82 96 0
83 96 0
84 96 0
-97 0
-90 96 -98 0
90 -96 -98 0
98 -96 -90 0
90 96 98 0
-4 -98 0
80 -99 -100 0
99 -80 -100 0
-80 -99 100 0
80 99 100 0
-1 -100 0
99 -81 -101 0
81 -99 -101 0
101 -99 -81 0
101 99 81 0
-2 101 0
-80 102 0
-81 102 0
-82 102 0
-83 102 0
-84 102 0
80 81 82 83 84 -102 0
99 -102 -103 0
-99 102 -103 0
-99 -102 103 0
99 102 103 0
-3 103 0
80 104 0
81 104 0
82 104 0
83 104 0
84 104 0
-105 0
-99 104 -106 0
99 -104 -106 0
106 -104 -99 0
99 104 106 0
-4 -106 0
81 -107 -108 0
107 -81 -108 0
-81 -107 108 0
81 107 108 0
-1 -108 0
107 -82 -109 0
82 -107 -109 0
109 -107 -82 0
109 107 82 0
-2 109 0
-81 110 0
-82 110 0
-83 110 0
-84 110 0
81 82 83 84 -110 0
107 -110 -111 0
-107 110 -111 0
-107 -110 111 0
107 110 111 0
-3 111 0
81 112 0
82 112 0
83 112 0
84 112 0
-113 0
-107 112 -114 0
107 -112 -114 0
114 -112 -107 0
107 112 114 0
-4 -114 0
82 -115 -116 0
115 -82 -116 0
-82 -115 116 0
82 115 116 0
-1 -116 0
115 -83 -117 0
83 -115 -117 0
117 -115 -83 0
117 115 83 0
-2 117 0
115 -110 -118 0
110 -115 -118 0
-110 -115 118 0
115 110 118 0
-3 118 0
112 -115 -119 0
115 -112 -119 0
119 -112 -115 0
115 112 119 0
-4 -119 0
83 -120 -121 0
120 -83 -121 0
-83 -120 121 0
83 120 121 0
-1 -121 0
120 -84 -122 0
84 -120 -122 0
122 -120 -84 0
122 120 84 0
-2 122 0
120 -110 -123 0
110 -120 -123 0
-110 -120 123 0
120 110 123 0
-3 123 0
112 -120 -124 0
120 -112 -124 0
124 -112 -120 0
120 112 124 0
-4 -124 0
84 -125 -126 0
125 -84 -126 0
-84 -125 126 0
84 125 126 0
-1 -126 0
-81 125 -127 0
81 -125 -127 0
127 -125 -81 0
127 125 81 0
-2 127 0
125 -110 -128 0
110 -125 -128 0
-110 -125 128 0
125 110 128 0
-3 128 0
112 -125 -129 0
125 -112 -129 0
129 -112 -125 0
125 112 129 0
-4 -129 0
130 -131 -132 0
131 -130 -132 0
-130 -131 132 0
131 130 132 0
-1 -132 0
131 -133 -134 0
133 -131 -134 0
134 -131 -133 0
134 131 133 0
-2 134 0
-130 135 0
-133 135 0
-136 135 0
130 133 136 -135 0
131 -135 -137 0
-131 135 -137 0
-131 -135 137 0
131 135 137 0
-3 137 0
130 138 0
133 138 0
136 138 0
-130 -133 -136 -138 0
-131 138 -139 0
131 -138 -139 0
139 -138 -131 0
131 138 139 0
-4 -139 0
133 -140 -141 0
140 -133 -141 0
-133 -140 141 0
133 140 141 0
-1 -141 0
140 -136 -142 0
136 -140 -142 0
142 -140 -136 0
142 140 136 0
-2 142 0
-133 143 0
-136 143 0
133 136 -143 0
140 -143 -144 0
-140 143 -144 0
-140 -143 144 0
140 143 144 0
-3 144 0
133 145 0
136 145 0
-133 -136 -145 0
-140 145 -146 0
140 -145 -146 0
146 -145 -140 0
140 145 146 0
-4 -146 0
136 -147 -148 0
147 -136 -148 0
-136 -147 148 0
136 147 148 0
-1 -148 0
147 -136 -149 0
136 -147 -149 0
149 -147 -136 0
149 147 136 0
-2 149 0
-3 149 0
-4 149 0
150 -151 -152 0
151 -150 -152 0
-150 -151 152 0
151 150 152 0
-1 -152 0
151 -153 -154 0
153 -151 -154 0
154 -151 -153 0
154 151 153 0
-2 154 0
-150 155 0
-153 155 0
-156 155 0
-157 155 0
-158 155 0
150 153 156 157 158 -155 0
151 -155 -159 0
-151 155 -159 0
-151 -155 159 0
151 155 159 0
-3 159 0
150 160 0
153 160 0
156 160 0
157 160 0
158 160 0
-161 0
-151 160 -162 0
151 -160 -162 0
162 -160 -151 0
151 160 162 0
-4 -162 0
153 -163 -164 0
163 -153 -164 0
-153 -163 164 0
153 163 164 0
-1 -164 0
163 -156 -165 0
156 -163 -165 0
165 -163 -156 0
165 163 156 0
-2 165 0
-153 166 0
-156 166 0
-157 166 0
-158 166 0
153 156 157 158 -166 0
163 -166 -167 0
-163 166 -167 0
-163 -166 167 0
163 166 167 0
-3 167 0
153 168 0
156 168 0
157 168 0
158 168 0
-169 0
-163 168 -170 0
163 -168 -170 0
170 -168 -163 0
163 168 170 0
-4 -170 0
156 -171 -172 0
171 -156 -172 0
-156 -171 172 0
156 171 172 0
-1 -172 0
171 -157 -173 0
157 -171 -173 0
173 -171 -157 0
173 171 157 0
-2 173 0
-156 174 0
-157 174 0
-158 174 0
156 157 158 -174 0
171 -174 -175 0
-171 174 -175 0
-171 -174 175 0
171 174 175 0
-3 175 0
156 176 0
157 176 0
158 176 0
-156 -157 -158 -176 0
-171 176 -177 0
171 -176 -177 0
177 -176 -171 0
171 176 177 0
-4 -177 0
157 -178 -179 0
178 -157 -179 0
-157 -178 179 0
157 178 179 0
-1 -179 0
178 -158 -180 0
158 -178 -180 0
180 -178 -158 0
180 178 158 0
-2 180 0
178 -174 -181 0
174 -178 -181 0
-174 -178 181 0
178 174 181 0
-3 181 0
176 -178 -182 0
178 -176 -182 0
182 -176 -178 0
178 176 182 0
-4 -182 0
158 -183 -184 0
183 -158 -184 0
-158 -183 184 0
158 183 184 0
-1 -184 0
-156 183 -185 0
156 -183 -185 0
185 -183 -156 0
185 183 156 0
-2 185 0
183 -174 -186 0
174 -183 -186 0
-174 -183 186 0
183 174 186 0
-3 186 0
176 -183 -187 0
183 -176 -187 0
187 -176 -183 0
183 176 187 0
-4 -187 0
188 -189 -190 0
189 -188 -190 0
-188 -189 190 0
189 188 190 0
-1 -190 0
189 -191 -192 0
191 -189 -192 0
192 -189 -191 0
192 189 191 0
-2 192 0
-5 193 0
-8 193 0
-188 193 0
-191 193 0
-194 193 0
-195 193 0
5 8 188 191 194 195 -193 0
189 -193 -196 0
-189 193 -196 0
-189 -193 196 0
189 193 196 0
-3 196 0
5 197 0
8 197 0
188 197 0
191 197 0
194 197 0
195 197 0
-198 0
-189 197 -199 0
189 -197 -199 0
199 -197 -189 0
189 197 199 0
-4 -199 0
191 -200 -201 0
200 -191 -201 0
-191 -200 201 0
191 200 201 0
-1 -201 0
200 -194 -202 0
194 -200 -202 0
202 -200 -194 0
202 200 194 0
-2 202 0
-5 203 0
-8 203 0
-191 203 0
-194 203 0
-195 203 0
5 8 191 194 195 -203 0
200 -203 -204 0
-200 203 -204 0
-200 -203 204 0
200 203 204 0
-3 204 0
5 205 0
8 205 0
191 205 0
194 205 0
195 205 0
-206 0
-200 205 -207 0
200 -205 -207 0
207 -205 -200 0
200 205 207 0
-4 -207 0
194 -208 -209 0
208 -194 -209 0
-194 -208 209 0
194 208 209 0
-1 -209 0
208 -195 -210 0
195 -208 -210 0
210 -208 -195 0
210 208 195 0
-2 210 0
-5 211 0
-8 211 0
-194 211 0
-195 211 0
5 8 194 195 -211 0
208 -211 -212 0
-208 211 -212 0
-208 -211 212 0
208 211 212 0
-3 212 0
5 213 0
8 213 0
194 213 0
195 213 0
-214 0
-208 213 -215 0
208 -213 -215 0
215 -213 -208 0
208 213 215 0
-4 -215 0
195 -216 -217 0
216 -195 -217 0
-195 -216 217 0
195 216 217 0
-1 -217 0
-5 216 -218 0
5 -216 -218 0
218 -216 -5 0
218 216 5 0
-2 218 0
-5 219 0
-8 219 0
-195 219 0
5 8 195 -219 0
216 -219 -220 0
-216 219 -220 0
-216 -219 220 0
216 219 220 0
-3 220 0
5 221 0
8 221 0
195 221 0
-5 -8 -195 -221 0
-216 221 -222 0
216 -221 -222 0
222 -221 -216 0
216 221 222 0
-4 -222 0
223 -224 -225 0
224 -223 -225 0
-223 -224 225 0
224 223 225 0
-1 -225 0
224 -226 -227 0
226 -224 -227 0
227 -224 -226 0
227 224 226 0
-2 227 0
-156 228 0
-157 228 0
-158 228 0
-223 228 0
-226 228 0
-229 228 0
-230 228 0
231 0
224 -228 -232 0
-224 228 -232 0
-224 -228 232 0
224 228 232 0
-3 232 0
156 233 0
157 233 0
158 233 0
223 233 0
226 233 0
229 233 0
230 233 0
-234 0
-224 233 -235 0
224 -233 -235 0
235 -233 -224 0
224 233 235 0
-4 -235 0
226 -236 -237 0
236 -226 -237 0
-226 -236 237 0
226 236 237 0
-1 -237 0
236 -229 -238 0
229 -236 -238 0
238 -236 -229 0
238 236 229 0
-2 238 0
-156 239 0
-157 239 0
-158 239 0
-226 239 0
-229 239 0
-230 239 0
240 0
236 -239 -241 0
-236 239 -241 0
-236 -239 241 0
236 239 241 0
-3 241 0
156 242 0
157 242 0
158 242 0
226 242 0
229 242 0
230 242 0
-243 0
-236 242 -244 0
236 -242 -244 0
244 -242 -236 0
236 242 244 0
-4 -244 0
229 -245 -246 0
245 -229 -246 0
-229 -245 246 0
229 245 246 0
-1 -246 0
245 -230 -247 0
230 -245 -247 0
247 -245 -230 0
247 245 230 0
-2 247 0
-156 248 0
-157 248 0
-158 248 0
-229 248 0
-230 248 0
156 157 158 229 230 -248 0
245 -248 -249 0
-245 248 -249 0
-245 -248 249 0
245 248 249 0
-3 249 0
156 250 0
157 250 0
158 250 0
229 250 0
230 250 0
-251 0
-245 250 -252 0
245 -250 -252 0
252 -250 -245 0
245 250 252 0
-4 -252 0
230 -253 -254 0
253 -230 -254 0
-230 -253 254 0
230 253 254 0
-1 -254 0
-158 253 -255 0
158 -253 -255 0
255 -253 -158 0
255 253 158 0
-2 255 0
-156 256 0
-157 256 0
-158 256 0
-230 256 0
156 157 158 230 -256 0
253 -256 -257 0
-253 256 -257 0
-253 -256 257 0
253 256 257 0
-3 257 0
156 258 0
157 258 0
158 258 0
230 258 0
-259 0
-253 258 -260 0
253 -258 -260 0
260 -258 -253 0
253 258 260 0
-4 -260 0
261 -262 -263 0
262 -261 -263 0
-261 -262 263 0
262 261 263 0
-1 -263 0
262 -264 -265 0
264 -262 -265 0
265 -262 -264 0
265 262 264 0
-2 265 0
-5 266 0
-8 266 0
-261 266 0
-264 266 0
-267 266 0
5 8 261 264 267 -266 0
262 -266 -268 0
-262 266 -268 0
-262 -266 268 0
262 266 268 0
-3 268 0
5 269 0
8 269 0
261 269 0
264 269 0
267 269 0
-270 0
-262 269 -271 0
262 -269 -271 0
271 -269 -262 0
262 269 271 0
-4 -271 0
264 -272 -273 0
272 -264 -273 0
-264 -272 273 0
264 272 273 0
-1 -273 0
272 -267 -274 0
267 -272 -274 0
274 -272 -267 0
274 272 267 0
-2 274 0
-5 275 0
-8 275 0
-264 275 0
-267 275 0
5 8 264 267 -275 0
272 -275 -276 0
-272 275 -276 0
-272 -275 276 0
272 275 276 0
-3 276 0
5 277 0
8 277 0
264 277 0
267 277 0
-278 0
-272 277 -279 0
272 -277 -279 0
279 -277 -272 0
272 277 279 0
-4 -279 0
267 -280 -281 0
280 -267 -281 0
-267 -280 281 0
267 280 281 0
-1 -281 0
-8 280 -282 0
8 -280 -282 0
282 -280 -8 0
282 280 8 0
-2 282 0
-5 283 0
-8 283 0
-267 283 0
5 8 267 -283 0
280 -283 -284 0
-280 283 -284 0
-280 -283 284 0
280 283 284 0
-3 284 0
5 285 0
8 285 0
267 285 0
-5 -8 -267 -285 0
-280 285 -286 0
280 -285 -286 0
286 -285 -280 0
280 285 286 0
-4 -286 0
287 -288 -289 0
288 -287 -289 0
-287 -288 289 0
288 287 289 0
-1 -289 0
288 -290 -291 0
290 -288 -291 0
291 -288 -290 0
291 288 290 0
-2 291 0
-287 292 0
-290 292 0
-293 292 0
287 290 293 -292 0
288 -292 -294 0
-288 292 -294 0
-288 -292 294 0
288 292 294 0
-3 294 0
287 295 0
290 295 0
293 295 0
-287 -290 -293 -295 0
-288 295 -296 0
288 -295 -296 0
296 -295 -288 0
288 295 296 0
-4 -296 0
290 -297 -298 0
297 -290 -298 0
-290 -297 298 0
290 297 298 0
-1 -298 0
297 -293 -299 0
293 -297 -299 0
299 -297 -293 0
299 297 293 0
-2 299 0
-290 300 0
-293 300 0
290 293 -300 0
297 -300 -301 0
-297 300 -301 0
-297 -300 301 0
297 300 301 0
-3 301 0
290 302 0
293 302 0
-290 -293 -302 0
-297 302 -303 0
297 -302 -303 0
303 -302 -297 0
297 302 303 0
-4 -303 0
293 -304 -305 0
304 -293 -305 0
-293 -304 305 0
293 304 305 0
-1 -305 0
304 -293 -306 0
293 -304 -306 0
306 -304 -293 0
306 304 293 0
-2 306 0
-3 306 0
-4 306 0
307 -308 -309 0
308 -307 -309 0
-307 -308 309 0
308 307 309 0
-1 -309 0
308 -310 -311 0
310 -308 -311 0
311 -308 -310 0
311 308 310 0
-2 311 0
-81 312 0
-82 312 0
-83 312 0
-84 312 0
-307 312 0
-310 312 0
313 0
308 -312 -314 0
-308 312 -314 0
-308 -312 314 0
308 312 314 0
-3 314 0
81 315 0
82 315 0
83 315 0
84 315 0
307 315 0
310 315 0
-316 0
-308 315 -317 0
308 -315 -317 0
317 -315 -308 0
308 315 317 0
-4 -317 0
310 -318 -319 0
318 -310 -319 0
-310 -318 319 0
310 318 319 0
-1 -319 0
-84 318 -320 0
84 -318 -320 0
320 -318 -84 0
320 318 84 0
-2 320 0
-81 321 0
-82 321 0
-83 321 0
-84 321 0
-310 321 0
81 82 83 84 310 -321 0
318 -321 -322 0
-318 321 -322 0
-318 -321 322 0
318 321 322 0
-3 322 0
81 323 0
82 323 0
83 323 0
84 323 0
310 323 0
-324 0
-318 323 -325 0
318 -323 -325 0
325 -323 -318 0
318 323 325 0
-4 -325 0
326 -327 -328 0
327 -326 -328 0
-326 -327 328 0
327 326 328 0
-1 -328 0
327 -329 -330 0
329 -327 -330 0
330 -327 -329 0
330 327 329 0
-2 330 0
-81 331 0
-82 331 0
-83 331 0
-84 331 0
-310 331 0
-326 331 0
-329 331 0
332 0
327 -331 -333 0
-327 331 -333 0
-327 -331 333 0
327 331 333 0
-3 333 0
81 334 0
82 334 0
83 334 0
84 334 0
310 334 0
326 334 0
329 334 0
-335 0
-327 334 -336 0
327 -334 -336 0
336 -334 -327 0
327 334 336 0
-4 -336 0
329 -337 -338 0
337 -329 -338 0
-329 -337 338 0
329 337 338 0
-1 -338 0
-310 337 -339 0
310 -337 -339 0
339 -337 -310 0
339 337 310 0
-2 339 0
-81 340 0
-82 340 0
-83 340 0
-84 340 0
-310 340 0
-329 340 0
341 0
337 -340 -342 0
-337 340 -342 0
-337 -340 342 0
337 340 342 0
-3 342 0
81 343 0
82 343 0
83 343 0
84 343 0
310 343 0
329 343 0
-344 0
-337 343 -345 0
337 -343 -345 0
345 -343 -337 0
337 343 345 0
-4 -345 0
346 -347 -348 0
347 -346 -348 0
-346 -347 348 0
347 346 348 0
-1 -348 0
347 -349 -350 0
349 -347 -350 0
350 -347 -349 0
350 347 349 0
-2 350 0
-346 351 0
-349 351 0
-352 351 0
-353 351 0
-354 351 0
-355 351 0
-356 351 0
-357 351 0
358 0
347 -351 -359 0
-347 351 -359 0
-347 -351 359 0
347 351 359 0
-3 359 0
346 360 0
349 360 0
352 360 0
353 360 0
354 360 0
355 360 0
356 360 0
357 360 0
-361 0
-347 360 -362 0
347 -360 -362 0
362 -360 -347 0
347 360 362 0
-4 -362 0
349 -363 -364 0
363 -349 -364 0
-349 -363 364 0
349 363 364 0
-1 -364 0
363 -352 -365 0
352 -363 -365 0
365 -363 -352 0
365 363 352 0
-2 365 0
-349 366 0
-352 366 0
-353 366 0
-354 366 0
-355 366 0
-356 366 0
-357 366 0
367 0
363 -366 -368 0
-363 366 -368 0
-363 -366 368 0
363 366 368 0
-3 368 0
349 369 0
352 369 0
353 369 0
354 369 0
355 369 0
356 369 0
357 369 0
-370 0
-363 369 -371 0
363 -369 -371 0
371 -369 -363 0
363 369 371 0
-4 -371 0
352 -372 -373 0
372 -352 -373 0
-352 -372 373 0
352 372 373 0
-1 -373 0
372 -353 -374 0
353 -372 -374 0
374 -372 -353 0
374 372 353 0
-2 374 0
-352 375 0
-353 375 0
-354 375 0
-355 375 0
-356 375 0
-357 375 0
376 0
372 -375 -377 0
-372 375 -377 0
-372 -375 377 0
372 375 377 0
-3 377 0
352 378 0
353 378 0
354 378 0
355 378 0
356 378 0
357 378 0
-379 0
-372 378 -380 0
372 -378 -380 0
380 -378 -372 0
372 378 380 0
-4 -380 0
353 -381 -382 0
381 -353 -382 0
-353 -381 382 0
353 381 382 0
-1 -382 0
381 -354 -383 0
354 -381 -383 0
383 -381 -354 0
383 381 354 0
-2 383 0
-353 384 0
-354 384 0
-355 384 0
-356 384 0
-357 384 0
353 354 355 356 357 -384 0
381 -384 -385 0
-381 384 -385 0
-381 -384 385 0
381 384 385 0
-3 385 0
353 386 0
354 386 0
355 386 0
356 386 0
357 386 0
-387 0
-381 386 -388 0
381 -386 -388 0
388 -386 -381 0
381 386 388 0
-4 -388 0
354 -389 -390 0
389 -354 -390 0
-354 -389 390 0
354 389 390 0
-1 -390 0
389 -355 -391 0
355 -389 -391 0
391 -389 -355 0
391 389 355 0
-2 391 0
-354 392 0
-355 392 0
-356 392 0
-357 392 0
354 355 356 357 -392 0
389 -392 -393 0
-389 392 -393 0
-389 -392 393 0
389 392 393 0
-3 393 0
354 394 0
355 394 0
356 394 0
357 394 0
-395 0
-389 394 -396 0
389 -394 -396 0
396 -394 -389 0
389 394 396 0
-4 -396 0
355 -397 -398 0
397 -355 -398 0
-355 -397 398 0
355 397 398 0
-1 -398 0
397 -356 -399 0
356 -397 -399 0
399 -397 -356 0
399 397 356 0
-2 399 0
397 -392 -400 0
392 -397 -400 0
-392 -397 400 0
397 392 400 0
-3 400 0
394 -397 -401 0
397 -394 -401 0
401 -394 -397 0
397 394 401 0
-4 -401 0
356 -402 -403 0
402 -356 -403 0
-356 -402 403 0
356 402 403 0
-1 -403 0
402 -357 -404 0
357 -402 -404 0
404 -402 -357 0
404 402 357 0
-2 404 0
402 -392 -405 0
392 -402 -405 0
-392 -402 405 0
402 392 405 0
-3 405 0
394 -402 -406 0
402 -394 -406 0
406 -394 -402 0
402 394 406 0
-4 -406 0
357 -407 -408 0
407 -357 -408 0
-357 -407 408 0
357 407 408 0
-1 -408 0
-354 407 -409 0
354 -407 -409 0
409 -407 -354 0
409 407 354 0
-2 409 0
407 -392 -410 0
392 -407 -410 0
-392 -407 410 0
407 392 410 0
-3 410 0
394 -407 -411 0
407 -394 -411 0
411 -394 -407 0
407 394 411 0
-4 -411 0
412 -413 -414 0
413 -412 -414 0
-412 -413 414 0
413 412 414 0
-1 -414 0
413 -415 -416 0
415 -413 -416 0
416 -413 -415 0
416 413 415 0
-2 416 0
-412 417 0
-415 417 0
-418 417 0
-419 417 0
-420 417 0
-421 417 0
422 0
413 -417 -423 0
-413 417 -423 0
-413 -417 423 0
413 417 423 0
-3 423 0
412 424 0
415 424 0
418 424 0
419 424 0
420 424 0
421 424 0
-425 0
-413 424 -426 0
413 -424 -426 0
426 -424 -413 0
413 424 426 0
-4 -426 0
415 -427 -428 0
427 -415 -428 0
-415 -427 428 0
415 427 428 0
-1 -428 0
427 -418 -429 0
418 -427 -429 0
429 -427 -418 0
429 427 418 0
-2 429 0
-415 430 0
-418 430 0
-419 430 0
-420 430 0
-421 430 0
415 418 419 420 421 -430 0
427 -430 -431 0
-427 430 -431 0
-427 -430 431 0
427 430 431 0
-3 431 0
415 432 0
418 432 0
419 432 0
420 432 0
421 432 0
-433 0
-427 432 -434 0
427 -432 -434 0
434 -432 -427 0
427 432 434 0
-4 -434 0
418 -435 -436 0
435 -418 -436 0
-418 -435 436 0
418 435 436 0
-1 -436 0
435 -419 -437 0
419 -435 -437 0
437 -435 -419 0
437 435 419 0
-2 437 0
435 -430 -438 0
430 -435 -438 0
-430 -435 438 0
435 430 438 0
-3 438 0
432 -435 -439 0
435 -432 -439 0
439 -432 -435 0
435 432 439 0
-4 -439 0
419 -440 -441 0
440 -419 -441 0
-419 -440 441 0
419 440 441 0
-1 -441 0
440 -420 -442 0
420 -440 -442 0
442 -440 -420 0
442 440 420 0
-2 442 0
440 -430 -443 0
430 -440 -443 0
-430 -440 443 0
440 430 443 0
-3 443 0
432 -440 -444 0
440 -432 -444 0
444 -432 -440 0
440 432 444 0
-4 -444 0
420 -445 -446 0
445 -420 -446 0
-420 -445 446 0
420 445 446 0
-1 -446 0
445 -421 -447 0
421 -445 -447 0
447 -445 -421 0
447 445 421 0
-2 447 0
445 -430 -448 0
430 -445 -448 0
-430 -445 448 0
445 430 448 0
-3 448 0
432 -445 -449 0
445 -432 -449 0
449 -432 -445 0
445 432 449 0
-4 -449 0
421 -450 -451 0
450 -421 -451 0
-421 -450 451 0
421 450 451 0
-1 -451 0
-415 450 -452 0
415 -450 -452 0
452 -450 -415 0
452 450 415 0
-2 452 0
450 -430 -453 0
430 -450 -453 0
-430 -450 453 0
450 430 453 0
-3 453 0
432 -450 -454 0
450 -432 -454 0
454 -432 -450 0
450 432 454 0
-4 -454 0
455 -456 -457 0
456 -455 -457 0
-455 -456 457 0
456 455 457 0
-1 -457 0
456 -458 -459 0
458 -456 -459 0
459 -456 -458 0
459 456 458 0
-2 459 0
-25 460 0
-26 460 0
-27 460 0
-28 460 0
-29 460 0
-455 460 0
-458 460 0
461 0
456 -460 -462 0
-456 460 -462 0
-456 -460 462 0
456 460 462 0
-3 462 0
25 463 0
26 463 0
27 463 0
28 463 0
29 463 0
455 463 0
458 463 0
-464 0
-456 463 -465 0
456 -463 -465 0
465 -463 -456 0
456 463 465 0
-4 -465 0
458 -466 -467 0
466 -458 -467 0
-458 -466 467 0
458 466 467 0
-1 -467 0
-25 466 -468 0
25 -466 -468 0
468 -466 -25 0
468 466 25 0
-2 468 0
-25 469 0
-26 469 0
-27 469 0
-28 469 0
-29 469 0
-458 469 0
25 26 27 28 29 458 -469 0
466 -469 -470 0
-466 469 -470 0
-466 -469 470 0
466 469 470 0
-3 470 0
25 471 0
26 471 0
27 471 0
28 471 0
29 471 0
458 471 0
-472 0
-466 471 -473 0
466 -471 -473 0
473 -471 -466 0
466 471 473 0
-4 -473 0
474 -475 -476 0
475 -474 -476 0
-474 -475 476 0
475 474 476 0
-1 -476 0
475 -477 -478 0
477 -475 -478 0
478 -475 -477 0
478 475 477 0
-2 478 0
-133 479 0
-136 479 0
-474 479 0
-477 479 0
-480 479 0
133 136 474 477 480 -479 0
475 -479 -481 0
-475 479 -481 0
-475 -479 481 0
475 479 481 0
-3 481 0
133 482 0
136 482 0
474 482 0
477 482 0
480 482 0
-483 0
-475 482 -484 0
475 -482 -484 0
484 -482 -475 0
475 482 484 0
-4 -484 0
477 -485 -486 0
485 -477 -486 0
-477 -485 486 0
477 485 486 0
-1 -486 0
485 -480 -487 0
480 -485 -487 0
487 -485 -480 0
487 485 480 0
-2 487 0
-133 488 0
-136 488 0
-477 488 0
-480 488 0
133 136 477 480 -488 0
485 -488 -489 0
-485 488 -489 0
-485 -488 489 0
485 488 489 0
-3 489 0
133 490 0
136 490 0
477 490 0
480 490 0
-491 0
-485 490 -492 0
485 -490 -492 0
492 -490 -485 0
485 490 492 0
-4 -492 0
480 -493 -494 0
493 -480 -494 0
-480 -493 494 0
480 493 494 0
-1 -494 0
-133 493 -495 0
133 -493 -495 0
495 -493 -133 0
495 493 133 0
-2 495 0
-133 496 0
-136 496 0
-480 496 0
133 136 480 -496 0
493 -496 -497 0
-493 496 -497 0
-493 -496 497 0
493 496 497 0
-3 497 0
133 498 0
136 498 0
480 498 0
-133 -136 -480 -498 0
-493 498 -499 0
493 -498 -499 0
499 -498 -493 0
493 498 499 0
-4 -499 0
500 -501 -502 0
501 -500 -502 0
-500 -501 502 0
501 500 502 0
-1 -502 0
501 -503 -504 0
503 -501 -504 0
504 -501 -503 0
504 501 503 0
-2 504 0
-415 505 0
-418 505 0
-419 505 0
-420 505 0
-421 505 0
-500 505 0
-503 505 0
506 0
501 -505 -507 0
-501 505 -507 0
-501 -505 507 0
501 505 507 0
-3 507 0
415 508 0
418 508 0
419 508 0
420 508 0
421 508 0
500 508 0
503 508 0
-509 0
-501 508 -510 0
501 -508 -510 0
510 -508 -501 0
501 508 510 0
-4 -510 0
503 -511 -512 0
511 -503 -512 0
-503 -511 512 0
503 511 512 0
-1 -512 0
-418 511 -513 0
418 -511 -513 0
513 -511 -418 0
513 511 418 0
-2 513 0
-415 514 0
-418 514 0
-419 514 0
-420 514 0
-421 514 0
-503 514 0
515 0
511 -514 -516 0
-511 514 -516 0
-511 -514 516 0
511 514 516 0
-3 516 0
415 517 0
418 517 0
419 517 0
420 517 0
421 517 0
503 517 0
-518 0
-511 517 -519 0
511 -517 -519 0
519 -517 -511 0
511 517 519 0
-4 -519 0
520 -521 -522 0
521 -520 -522 0
-520 -521 522 0
521 520 522 0
-1 -522 0
-267 521 -523 0
267 -521 -523 0
523 -521 -267 0
523 521 267 0
-2 523 0
-5 524 0
-8 524 0
-267 524 0
-520 524 0
5 8 267 520 -524 0
521 -524 -525 0
-521 524 -525 0
-521 -524 525 0
521 524 525 0
-3 525 0
5 526 0
8 526 0
267 526 0
520 526 0
-527 0
-521 526 -528 0
521 -526 -528 0
528 -526 -521 0
521 526 528 0
-4 -528 0
529 -530 -531 0
530 -529 -531 0
-529 -530 531 0
530 529 531 0
-1 -531 0
530 -532 -533 0
532 -530 -533 0
533 -530 -532 0
533 530 532 0
-2 533 0
-156 534 0
-157 534 0
-158 534 0
-529 534 0
-532 534 0
-535 534 0
536 0
530 -534 -537 0
-530 534 -537 0
-530 -534 537 0
530 534 537 0
-3 537 0
156 538 0
157 538 0
158 538 0
529 538 0
532 538 0
535 538 0
-539 0
-530 538 -540 0
530 -538 -540 0
540 -538 -530 0
530 538 540 0
-4 -540 0
532 -541 -542 0
541 -532 -542 0
-532 -541 542 0
532 541 542 0
-1 -542 0
541 -535 -543 0
535 -541 -543 0
543 -541 -535 0
543 541 535 0
-2 543 0
-156 544 0
-157 544 0
-158 544 0
-532 544 0
-535 544 0
156 157 158 532 535 -544 0
541 -544 -545 0
-541 544 -545 0
-541 -544 545 0
541 544 545 0
-3 545 0
156 546 0
157 546 0
158 546 0
532 546 0
535 546 0
-547 0
-541 546 -548 0
541 -546 -548 0
548 -546 -541 0
541 546 548 0
-4 -548 0
535 -549 -550 0
549 -535 -550 0
-535 -549 550 0
535 549 550 0
-1 -550 0
-157 549 -551 0
157 -549 -551 0
551 -549 -157 0
551 549 157 0
-2 551 0
-156 552 0
-157 552 0
-158 552 0
-535 552 0
156 157 158 535 -552 0
549 -552 -553 0
-549 552 -553 0
-549 -552 553 0
549 552 553 0
-3 553 0
156 554 0
157 554 0
158 554 0
535 554 0
-555 0
-549 554 -556 0
549 -554 -556 0
556 -554 -549 0
549 554 556 0
-4 -556 0
557 -558 -559 0
558 -557 -559 0
-557 -558 559 0
558 557 559 0
-1 -559 0
558 -560 -561 0
560 -558 -561 0
561 -558 -560 0
561 558 560 0
-2 561 0
-133 562 0
-136 562 0
-480 562 0
-557 562 0
-560 562 0
133 136 480 557 560 -562 0
558 -562 -563 0
-558 562 -563 0
-558 -562 563 0
558 562 563 0
-3 563 0
133 564 0
136 564 0
480 564 0
557 564 0
560 564 0
-565 0
-558 564 -566 0
558 -564 -566 0
566 -564 -558 0
558 564 566 0
-4 -566 0
560 -567 -568 0
567 -560 -568 0
-560 -567 568 0
560 567 568 0
-1 -568 0
-480 567 -569 0
480 -567 -569 0
569 -567 -480 0
569 567 480 0
-2 569 0
-133 570 0
-136 570 0
-480 570 0
-560 570 0
133 136 480 560 -570 0
567 -570 -571 0
-567 570 -571 0
-567 -570 571 0
567 570 571 0
-3 571 0
133 572 0
136 572 0
480 572 0
560 572 0
-573 0
-567 572 -574 0
567 -572 -574 0
574 -572 -567 0
567 572 574 0
-4 -574 0
575 -576 -577 0
576 -575 -577 0
-575 -576 577 0
576 575 577 0
-1 -577 0
-82 576 -578 0
82 -576 -578 0
578 -576 -82 0
578 576 82 0
-2 578 0
-81 579 0
-82 579 0
-83 579 0
-84 579 0
-575 579 0
81 82 83 84 575 -579 0
576 -579 -580 0
-576 579 -580 0
-576 -579 580 0
576 579 580 0
-3 580 0
81 581 0
82 581 0
83 581 0
84 581 0
575 581 0
-582 0
-576 581 -583 0
576 -581 -583 0
583 -581 -576 0
576 581 583 0
-4 -583 0
584 -585 -586 0
585 -584 -586 0
-584 -585 586 0
585 584 586 0
-1 -586 0
585 -587 -588 0
587 -585 -588 0
588 -585 -587 0
588 585 587 0
-2 588 0
-354 589 0
-355 589 0
-356 589 0
-357 589 0
-584 589 0
-587 589 0
590 0
585 -589 -591 0
-585 589 -591 0
-585 -589 591 0
585 589 591 0
-3 591 0
354 592 0
355 592 0
356 592 0
357 592 0
584 592 0
587 592 0
-593 0
-585 592 -594 0
585 -592 -594 0
594 -592 -585 0
585 592 594 0
-4 -594 0
587 -595 -596 0
595 -587 -596 0
-587 -595 596 0
587 595 596 0
-1 -596 0
-357 595 -597 0
357 -595 -597 0
597 -595 -357 0
597 595 357 0
-2 597 0
-354 598 0
-355 598 0
-356 598 0
-357 598 0
-587 598 0
354 355 356 357 587 -598 0
595 -598 -599 0
-595 598 -599 0
-595 -598 599 0
595 598 599 0
-3 599 0
354 600 0
355 600 0
356 600 0
357 600 0
587 600 0
-601 0
-595 600 -602 0
595 -600 -602 0
602 -600 -595 0
595 600 602 0
-4 -602 0
603 -604 -605 0
604 -603 -605 0
-603 -604 605 0
604 603 605 0
-1 -605 0
-261 604 -606 0
261 -604 -606 0
606 -604 -261 0
606 604 261 0
-2 606 0
-5 607 0
-8 607 0
-261 607 0
-264 607 0
-267 607 0
-603 607 0
5 8 261 264 267 603 -607 0
604 -607 -608 0
-604 607 -608 0
-604 -607 608 0
604 607 608 0
-3 608 0
5 609 0
8 609 0
261 609 0
264 609 0
267 609 0
603 609 0
-610 0
-604 609 -611 0
604 -609 -611 0
611 -609 -604 0
604 609 611 0
-4 -611 0
612 -613 -614 0
613 -612 -614 0
-612 -613 614 0
613 612 614 0
-1 -614 0
613 -615 -616 0
615 -613 -616 0
616 -613 -615 0
616 613 615 0
-2 616 0
-354 617 0
-355 617 0
-356 617 0
-357 617 0
-587 617 0
-612 617 0
-615 617 0
-618 617 0
619 0
613 -617 -620 0
-613 617 -620 0
-613 -617 620 0
613 617 620 0
-3 620 0
354 621 0
355 621 0
356 621 0
357 621 0
587 621 0
612 621 0
615 621 0
618 621 0
-622 0
-613 621 -623 0
613 -621 -623 0
623 -621 -613 0
613 621 623 0
-4 -623 0
615 -624 -625 0
624 -615 -625 0
-615 -624 625 0
615 624 625 0
-1 -625 0
624 -618 -626 0
618 -624 -626 0
626 -624 -618 0
626 624 618 0
-2 626 0
-354 627 0
-355 627 0
-356 627 0
-357 627 0
-587 627 0
-615 627 0
-618 627 0
628 0
624 -627 -629 0
-624 627 -629 0
-624 -627 629 0
624 627 629 0
-3 629 0
354 630 0
355 630 0
356 630 0
357 630 0
587 630 0
615 630 0
618 630 0
-631 0
-624 630 -632 0
624 -630 -632 0
632 -630 -624 0
624 630 632 0
-4 -632 0
618 -633 -634 0
633 -618 -634 0
-618 -633 634 0
618 633 634 0
-1 -634 0
-587 633 -635 0
587 -633 -635 0
635 -633 -587 0
635 633 587 0
-2 635 0
-354 636 0
-355 636 0
-356 636 0
-357 636 0
-587 636 0
-618 636 0
637 0
633 -636 -638 0
-633 636 -638 0
-633 -636 638 0
633 636 638 0
-3 638 0
354 639 0
355 639 0
356 639 0
357 639 0
587 639 0
618 639 0
-640 0
-633 639 -641 0
633 -639 -641 0
641 -639 -633 0
633 639 641 0
-4 -641 0
642 -643 -644 0
643 -642 -644 0
-642 -643 644 0
643 642 644 0
-1 -644 0
-356 643 -645 0
356 -643 -645 0
645 -643 -356 0
645 643 356 0
-2 645 0
-354 646 0
-355 646 0
-356 646 0
-357 646 0
-642 646 0
354 355 356 357 642 -646 0
643 -646 -647 0
-643 646 -647 0
-643 -646 647 0
643 646 647 0
-3 647 0
354 648 0
355 648 0
356 648 0
357 648 0
642 648 0
-649 0
-643 648 -650 0
643 -648 -650 0
650 -648 -643 0
643 648 650 0
-4 -650 0
651 -652 -653 0
652 -651 -653 0
-651 -652 653 0
652 651 653 0
-1 -653 0
-195 652 -654 0
195 -652 -654 0
654 -652 -195 0
654 652 195 0
-2 654 0
-5 655 0
-8 655 0
-195 655 0
-651 655 0
5 8 195 651 -655 0
652 -655 -656 0
-652 655 -656 0
-652 -655 656 0
652 655 656 0
-3 656 0
5 657 0
8 657 0
195 657 0
651 657 0
-658 0
-652 657 -659 0
652 -657 -659 0
659 -657 -652 0
652 657 659 0
-4 -659 0
660 -661 -662 0
661 -660 -662 0
-660 -661 662 0
661 660 662 0
-1 -662 0
661 -663 -664 0
663 -661 -664 0
664 -661 -663 0
664 661 663 0
-2 664 0
-130 665 0
-133 665 0
-136 665 0
-660 665 0
-663 665 0
130 133 136 660 663 -665 0
661 -665 -666 0
-661 665 -666 0
-661 -665 666 0
661 665 666 0
-3 666 0
130 667 0
133 667 0
136 667 0
660 667 0
663 667 0
-668 0
-661 667 -669 0
661 -667 -669 0
669 -667 -661 0
661 667 669 0
-4 -669 0
663 -670 -671 0
670 -663 -671 0
-663 -670 671 0
663 670 671 0
-1 -671 0
-130 670 -672 0
130 -670 -672 0
672 -670 -130 0
672 670 130 0
-2 672 0
-130 673 0
-133 673 0
-136 673 0
-663 673 0
130 133 136 663 -673 0
670 -673 -674 0
-670 673 -674 0
-670 -673 674 0
670 673 674 0
-3 674 0
130 675 0
133 675 0
136 675 0
663 675 0
-676 0
-670 675 -677 0
670 -675 -677 0
677 -675 -670 0
670 675 677 0
-4 -677 0
678 -679 -680 0
679 -678 -680 0
-678 -679 680 0
679 678 680 0
-1 -680 0
-532 679 -681 0
532 -679 -681 0
681 -679 -532 0
681 679 532 0
-2 681 0
-156 682 0
-157 682 0
-158 682 0
-532 682 0
-535 682 0
-678 682 0
683 0
679 -682 -684 0
-679 682 -684 0
-679 -682 684 0
679 682 684 0
-3 684 0
156 685 0
157 685 0
158 685 0
532 685 0
535 685 0
678 685 0
-686 0
-679 685 -687 0
679 -685 -687 0
687 -685 -679 0
679 685 687 0
-4 -687 0
688 -689 -690 0
689 -688 -690 0
-688 -689 690 0
689 688 690 0
-1 -690 0
689 -691 -692 0
691 -689 -692 0
692 -689 -691 0
692 689 691 0
-2 692 0
-352 693 0
-353 693 0
-354 693 0
-355 693 0
-356 693 0
-357 693 0
-688 693 0
-691 693 0
694 0
689 -693 -695 0
-689 693 -695 0
-689 -693 695 0
689 693 695 0
-3 695 0
352 696 0
353 696 0
354 696 0
355 696 0
356 696 0
357 696 0
688 696 0
691 696 0
-697 0
-689 696 -698 0
689 -696 -698 0
698 -696 -689 0
689 696 698 0
-4 -698 0
691 -699 -700 0
699 -691 -700 0
-691 -699 700 0
691 699 700 0
-1 -700 0
-352 699 -701 0
352 -699 -701 0
701 -699 -352 0
701 699 352 0
-2 701 0
-352 702 0
-353 702 0
-354 702 0
-355 702 0
-356 702 0
-357 702 0
-691 702 0
703 0
699 -702 -704 0
-699 702 -704 0
-699 -702 704 0
699 702 704 0
-3 704 0
352 705 0
353 705 0
354 705 0
355 705 0
356 705 0
357 705 0
691 705 0
-706 0
-699 705 -707 0
699 -705 -707 0
707 -705 -699 0
699 705 707 0
-4 -707 0
708 -709 -710 0
709 -708 -710 0
-708 -709 710 0
709 708 710 0
-1 -710 0
709 -711 -712 0
711 -709 -712 0
712 -709 -711 0
712 709 711 0
-2 712 0
-353 713 0
-354 713 0
-355 713 0
-356 713 0
-357 713 0
-708 713 0
-711 713 0
-714 713 0
715 0
709 -713 -716 0
-709 713 -716 0
-709 -713 716 0
709 713 716 0
-3 716 0
353 717 0
354 717 0
355 717 0
356 717 0
357 717 0
708 717 0
711 717 0
714 717 0
-718 0
-709 717 -719 0
709 -717 -719 0
719 -717 -709 0
709 717 719 0
-4 -719 0
711 -720 -721 0
720 -711 -721 0
-711 -720 721 0
711 720 721 0
-1 -721 0
720 -714 -722 0
714 -720 -722 0
722 -720 -714 0
722 720 714 0
-2 722 0
-353 723 0
-354 723 0
-355 723 0
-356 723 0
-357 723 0
-711 723 0
-714 723 0
724 0
720 -723 -725 0
-720 723 -725 0
-720 -723 725 0
720 723 725 0
-3 725 0
353 726 0
354 726 0
355 726 0
356 726 0
357 726 0
711 726 0
714 726 0
-727 0
-720 726 -728 0
720 -726 -728 0
728 -726 -720 0
720 726 728 0
-4 -728 0
714 -729 -730 0
729 -714 -730 0
-714 -729 730 0
714 729 730 0
-1 -730 0
-353 729 -731 0
353 -729 -731 0
731 -729 -353 0
731 729 353 0
-2 731 0
-353 732 0
-354 732 0
-355 732 0
-356 732 0
-357 732 0
-714 732 0
733 0
729 -732 -734 0
-729 732 -734 0
-729 -732 734 0
729 732 734 0
-3 734 0
353 735 0
354 735 0
355 735 0
356 735 0
357 735 0
714 735 0
-736 0
-729 735 -737 0
729 -735 -737 0
737 -735 -729 0
729 735 737 0
-4 -737 0
6 0
14 0
20 0
69 0
75 0
99 0
131 0
140 0
-147 0
151 0
178 0
189 0
208 0
216 0
224 0
262 0
272 0
288 0
297 0
308 0
327 0
337 0
347 0
413 0
427 0
435 0
456 0
475 0
493 0
501 0
521 0
530 0
558 0
576 0
585 0
604 0
613 0
643 0
652 0
661 0
679 0
689 0
709 0
